75
1 0 30
2 0 18
2 1 11
3 0 30
3 1 4
3 2 45
4 0 29
4 1 5
4 2 8
4 3 18
5 0 14
5 1 29
5 2 9
5 3 22
5 4 34
6 0 41
6 1 9
6 2 42
6 3 6
6 4 36
6 5 13
7 0 50
7 1 30
7 2 25
7 3 30
7 4 32
7 5 23
7 6 37
8 0 24
8 1 6
8 2 47
8 3 24
8 4 41
8 5 47
8 6 31
8 7 41
9 0 46
9 1 38
9 2 7
9 3 28
9 4 11
9 5 48
9 6 33
9 7 44
9 8 33
10 0 21
10 1 10
10 2 3
10 3 23
10 4 6
10 5 25
10 6 46
10 7 40
10 8 41
10 9 6
11 0 6
11 1 36
11 2 45
11 3 2
11 4 44
11 5 35
11 6 41
11 7 50
11 8 31
11 9 28
11 10 13
12 0 6
12 1 20
12 2 48
12 3 36
12 4 36
12 5 24
12 6 42
12 7 40
12 8 18
12 9 7
12 10 40
12 11 49
13 0 24
13 1 32
13 2 2
13 3 15
13 4 7
13 5 3
13 6 12
13 7 13
13 8 39
13 9 12
13 10 43
13 11 4
13 12 8
14 0 9
14 1 24
14 2 39
14 3 20
14 4 29
14 5 9
14 6 46
14 7 18
14 8 17
14 9 9
14 10 8
14 11 30
14 12 16
14 13 8
15 0 29
15 1 17
15 2 24
15 3 1
15 4 26
15 5 27
15 6 21
15 7 45
15 8 41
15 9 50
15 10 41
15 11 50
15 12 1
15 13 42
15 14 14
16 0 5
16 1 16
16 2 47
16 3 31
16 4 8
16 5 29
16 6 14
16 7 33
16 8 16
16 9 45
16 10 48
16 11 46
16 12 49
16 13 16
16 14 39
16 15 42
17 0 10
17 1 26
17 2 11
17 3 32
17 4 6
17 5 49
17 6 21
17 7 24
17 8 20
17 9 44
17 10 32
17 11 46
17 12 50
17 13 50
17 14 41
17 15 38
17 16 21
18 0 33
18 1 44
18 2 32
18 3 32
18 4 32
18 5 18
18 6 9
18 7 4
18 8 10
18 9 33
18 10 10
18 11 17
18 12 46
18 13 6
18 14 38
18 15 46
18 16 3
18 17 30
19 0 32
19 1 29
19 2 22
19 3 18
19 4 40
19 5 20
19 6 50
19 7 12
19 8 38
19 9 41
19 10 46
19 11 35
19 12 48
19 13 42
19 14 30
19 15 45
19 16 37
19 17 26
19 18 44
20 0 7
20 1 6
20 2 7
20 3 28
20 4 22
20 5 43
20 6 1
20 7 43
20 8 26
20 9 18
20 10 23
20 11 28
20 12 3
20 13 22
20 14 34
20 15 40
20 16 42
20 17 41
20 18 23
20 19 39
21 0 45
21 1 5
21 2 44
21 3 2
21 4 5
21 5 32
21 6 30
21 7 47
21 8 28
21 9 12
21 10 11
21 11 19
21 12 49
21 13 43
21 14 49
21 15 3
21 16 36
21 17 33
21 18 30
21 19 43
21 20 4
22 0 12
22 1 11
22 2 42
22 3 22
22 4 29
22 5 29
22 6 23
22 7 45
22 8 10
22 9 48
22 10 23
22 11 32
22 12 37
22 13 29
22 14 35
22 15 18
22 16 32
22 17 16
22 18 13
22 19 12
22 20 44
22 21 12
23 0 1
23 1 15
23 2 37
23 3 46
23 4 42
23 5 23
23 6 15
23 7 40
23 8 4
23 9 11
23 10 45
23 11 3
23 12 47
23 13 46
23 14 45
23 15 29
23 16 48
23 17 8
23 18 22
23 19 14
23 20 33
23 21 34
23 22 5
24 0 20
24 1 3
24 2 40
24 3 26
24 4 6
24 5 33
24 6 11
24 7 21
24 8 10
24 9 6
24 10 37
24 11 41
24 12 20
24 13 32
24 14 20
24 15 45
24 16 25
24 17 43
24 18 44
24 19 21
24 20 21
24 21 34
24 22 9
24 23 4
25 0 11
25 1 30
25 2 2
25 3 27
25 4 45
25 5 49
25 6 26
25 7 48
25 8 9
25 9 38
25 10 40
25 11 14
25 12 43
25 13 22
25 14 46
25 15 23
25 16 3
25 17 9
25 18 16
25 19 21
25 20 3
25 21 29
25 22 7
25 23 39
25 24 48
26 0 14
26 1 34
26 2 5
26 3 27
26 4 23
26 5 32
26 6 22
26 7 20
26 8 9
26 9 48
26 10 29
26 11 33
26 12 35
26 13 8
26 14 4
26 15 8
26 16 26
26 17 47
26 18 49
26 19 8
26 20 34
26 21 49
26 22 45
26 23 15
26 24 21
26 25 28
27 0 43
27 1 46
27 2 38
27 3 16
27 4 2
27 5 48
27 6 44
27 7 49
27 8 7
27 9 28
27 10 38
27 11 25
27 12 23
27 13 33
27 14 28
27 15 18
27 16 26
27 17 40
27 18 21
27 19 11
27 20 41
27 21 11
27 22 44
27 23 11
27 24 17
27 25 35
27 26 47
28 0 24
28 1 37
28 2 49
28 3 26
28 4 35
28 5 6
28 6 26
28 7 45
28 8 40
28 9 12
28 10 48
28 11 16
28 12 10
28 13 15
28 14 35
28 15 45
28 16 49
28 17 27
28 18 10
28 19 19
28 20 50
28 21 37
28 22 12
28 23 32
28 24 2
28 25 42
28 26 46
28 27 38
29 0 10
29 1 27
29 2 15
29 3 48
29 4 3
29 5 33
29 6 50
29 7 14
29 8 38
29 9 21
29 10 7
29 11 2
29 12 40
29 13 4
29 14 14
29 15 50
29 16 42
29 17 25
29 18 20
29 19 32
29 20 20
29 21 29
29 22 7
29 23 37
29 24 1
29 25 38
29 26 31
29 27 29
29 28 50
30 0 40
30 1 41
30 2 8
30 3 7
30 4 37
30 5 3
30 6 12
30 7 3
30 8 37
30 9 10
30 10 9
30 11 41
30 12 47
30 13 43
30 14 8
30 15 1
30 16 1
30 17 10
30 18 35
30 19 34
30 20 28
30 21 24
30 22 44
30 23 23
30 24 36
30 25 28
30 26 36
30 27 9
30 28 43
30 29 26
31 0 34
31 1 23
31 2 45
31 3 25
31 4 44
31 5 7
31 6 40
31 7 28
31 8 34
31 9 37
31 10 1
31 11 27
31 12 8
31 13 4
31 14 25
31 15 39
31 16 43
31 17 44
31 18 49
31 19 7
31 20 16
31 21 48
31 22 41
31 23 17
31 24 13
31 25 13
31 26 43
31 27 41
31 28 12
31 29 45
31 30 36
32 0 29
32 1 17
32 2 5
32 3 32
32 4 40
32 5 2
32 6 17
32 7 45
32 8 2
32 9 18
32 10 18
32 11 14
32 12 11
32 13 10
32 14 50
32 15 5
32 16 8
32 17 50
32 18 29
32 19 46
32 20 44
32 21 22
32 22 24
32 23 36
32 24 2
32 25 45
32 26 25
32 27 25
32 28 27
32 29 26
32 30 27
32 31 7
33 0 36
33 1 28
33 2 50
33 3 20
33 4 46
33 5 42
33 6 2
33 7 12
33 8 22
33 9 4
33 10 21
33 11 29
33 12 44
33 13 50
33 14 30
33 15 36
33 16 28
33 17 18
33 18 15
33 19 29
33 20 29
33 21 2
33 22 42
33 23 31
33 24 26
33 25 48
33 26 36
33 27 12
33 28 46
33 29 45
33 30 25
33 31 34
33 32 11
34 0 27
34 1 38
34 2 10
34 3 30
34 4 11
34 5 44
34 6 34
34 7 35
34 8 3
34 9 36
34 10 49
34 11 37
34 12 30
34 13 22
34 14 43
34 15 3
34 16 15
34 17 21
34 18 5
34 19 5
34 20 7
34 21 26
34 22 16
34 23 35
34 24 19
34 25 17
34 26 25
34 27 36
34 28 16
34 29 16
34 30 12
34 31 47
34 32 24
34 33 37
35 0 10
35 1 13
35 2 23
35 3 50
35 4 20
35 5 41
35 6 29
35 7 29
35 8 11
35 9 37
35 10 6
35 11 44
35 12 15
35 13 16
35 14 22
35 15 28
35 16 34
35 17 1
35 18 22
35 19 4
35 20 37
35 21 34
35 22 24
35 23 44
35 24 10
35 25 30
35 26 9
35 27 48
35 28 41
35 29 21
35 30 4
35 31 8
35 32 25
35 33 11
35 34 41
36 0 6
36 1 25
36 2 3
36 3 34
36 4 50
36 5 14
36 6 37
36 7 17
36 8 11
36 9 34
36 10 39
36 11 12
36 12 39
36 13 10
36 14 43
36 15 49
36 16 13
36 17 31
36 18 47
36 19 31
36 20 3
36 21 19
36 22 7
36 23 42
36 24 43
36 25 5
36 26 3
36 27 12
36 28 12
36 29 38
36 30 38
36 31 15
36 32 43
36 33 37
36 34 2
36 35 36
37 0 40
37 1 7
37 2 30
37 3 19
37 4 42
37 5 6
37 6 44
37 7 37
37 8 40
37 9 48
37 10 12
37 11 42
37 12 11
37 13 8
37 14 18
37 15 45
37 16 3
37 17 41
37 18 4
37 19 17
37 20 6
37 21 8
37 22 15
37 23 40
37 24 21
37 25 39
37 26 17
37 27 10
37 28 34
37 29 9
37 30 1
37 31 9
37 32 36
37 33 18
37 34 22
37 35 17
37 36 18
38 0 1
38 1 6
38 2 10
38 3 3
38 4 12
38 5 50
38 6 36
38 7 33
38 8 32
38 9 24
38 10 39
38 11 29
38 12 39
38 13 19
38 14 1
38 15 34
38 16 3
38 17 38
38 18 5
38 19 23
38 20 14
38 21 38
38 22 42
38 23 12
38 24 38
38 25 44
38 26 9
38 27 36
38 28 40
38 29 34
38 30 1
38 31 41
38 32 30
38 33 11
38 34 36
38 35 48
38 36 2
38 37 20
39 0 34
39 1 46
39 2 6
39 3 33
39 4 37
39 5 1
39 6 32
39 7 26
39 8 13
39 9 22
39 10 29
39 11 18
39 12 32
39 13 33
39 14 21
39 15 12
39 16 6
39 17 22
39 18 3
39 19 23
39 20 11
39 21 48
39 22 11
39 23 14
39 24 23
39 25 39
39 26 27
39 27 19
39 28 46
39 29 46
39 30 34
39 31 12
39 32 36
39 33 10
39 34 5
39 35 10
39 36 46
39 37 33
39 38 24
40 0 24
40 1 50
40 2 22
40 3 40
40 4 27
40 5 40
40 6 46
40 7 29
40 8 36
40 9 15
40 10 30
40 11 44
40 12 27
40 13 40
40 14 5
40 15 49
40 16 46
40 17 37
40 18 27
40 19 39
40 20 15
40 21 28
40 22 31
40 23 24
40 24 2
40 25 23
40 26 38
40 27 6
40 28 24
40 29 43
40 30 39
40 31 41
40 32 5
40 33 27
40 34 1
40 35 40
40 36 19
40 37 24
40 38 48
40 39 47
41 0 42
41 1 29
41 2 30
41 3 48
41 4 8
41 5 3
41 6 19
41 7 33
41 8 50
41 9 26
41 10 14
41 11 48
41 12 23
41 13 15
41 14 8
41 15 19
41 16 9
41 17 43
41 18 47
41 19 24
41 20 7
41 21 2
41 22 44
41 23 11
41 24 50
41 25 4
41 26 49
41 27 17
41 28 37
41 29 35
41 30 25
41 31 8
41 32 12
41 33 39
41 34 4
41 35 28
41 36 33
41 37 25
41 38 40
41 39 38
41 40 1
42 0 37
42 1 8
42 2 16
42 3 8
42 4 10
42 5 7
42 6 35
42 7 3
42 8 38
42 9 22
42 10 43
42 11 15
42 12 29
42 13 38
42 14 50
42 15 49
42 16 24
42 17 33
42 18 21
42 19 23
42 20 14
42 21 18
42 22 3
42 23 32
42 24 49
42 25 30
42 26 9
42 27 44
42 28 29
42 29 13
42 30 14
42 31 28
42 32 14
42 33 29
42 34 6
42 35 40
42 36 28
42 37 44
42 38 33
42 39 13
42 40 32
42 41 21
43 0 50
43 1 29
43 2 47
43 3 36
43 4 42
43 5 50
43 6 42
43 7 12
43 8 4
43 9 24
43 10 27
43 11 32
43 12 11
43 13 2
43 14 10
43 15 35
43 16 10
43 17 16
43 18 20
43 19 37
43 20 24
43 21 24
43 22 31
43 23 11
43 24 25
43 25 46
43 26 19
43 27 28
43 28 5
43 29 36
43 30 10
43 31 33
43 32 15
43 33 19
43 34 26
43 35 35
43 36 21
43 37 19
43 38 7
43 39 38
43 40 45
43 41 50
43 42 47
44 0 43
44 1 34
44 2 41
44 3 1
44 4 8
44 5 26
44 6 14
44 7 17
44 8 23
44 9 22
44 10 6
44 11 23
44 12 15
44 13 48
44 14 22
44 15 8
44 16 18
44 17 9
44 18 42
44 19 5
44 20 37
44 21 27
44 22 47
44 23 18
44 24 22
44 25 9
44 26 50
44 27 49
44 28 19
44 29 39
44 30 33
44 31 34
44 32 9
44 33 30
44 34 47
44 35 14
44 36 8
44 37 11
44 38 1
44 39 37
44 40 48
44 41 40
44 42 23
44 43 21
45 0 34
45 1 9
45 2 37
45 3 27
45 4 32
45 5 48
45 6 34
45 7 26
45 8 7
45 9 28
45 10 29
45 11 38
45 12 33
45 13 42
45 14 22
45 15 8
45 16 21
45 17 26
45 18 34
45 19 21
45 20 22
45 21 42
45 22 6
45 23 36
45 24 17
45 25 11
45 26 47
45 27 26
45 28 20
45 29 17
45 30 9
45 31 35
45 32 49
45 33 26
45 34 46
45 35 44
45 36 4
45 37 5
45 38 6
45 39 45
45 40 25
45 41 41
45 42 41
45 43 47
45 44 9
46 0 9
46 1 4
46 2 22
46 3 33
46 4 26
46 5 2
46 6 46
46 7 23
46 8 39
46 9 46
46 10 30
46 11 1
46 12 48
46 13 36
46 14 44
46 15 28
46 16 34
46 17 46
46 18 34
46 19 43
46 20 42
46 21 42
46 22 48
46 23 43
46 24 25
46 25 49
46 26 26
46 27 32
46 28 5
46 29 26
46 30 35
46 31 4
46 32 28
46 33 16
46 34 50
46 35 18
46 36 22
46 37 28
46 38 35
46 39 3
46 40 39
46 41 48
46 42 21
46 43 19
46 44 1
46 45 21
47 0 46
47 1 6
47 2 47
47 3 20
47 4 32
47 5 1
47 6 49
47 7 19
47 8 33
47 9 38
47 10 48
47 11 9
47 12 11
47 13 41
47 14 10
47 15 2
47 16 7
47 17 45
47 18 37
47 19 37
47 20 17
47 21 26
47 22 40
47 23 9
47 24 32
47 25 14
47 26 49
47 27 3
47 28 26
47 29 28
47 30 39
47 31 38
47 32 16
47 33 37
47 34 18
47 35 28
47 36 19
47 37 26
47 38 27
47 39 26
47 40 30
47 41 20
47 42 42
47 43 48
47 44 3
47 45 45
47 46 27
48 0 22
48 1 10
48 2 36
48 3 21
48 4 10
48 5 38
48 6 49
48 7 35
48 8 48
48 9 37
48 10 29
48 11 44
48 12 18
48 13 39
48 14 44
48 15 7
48 16 9
48 17 50
48 18 14
48 19 50
48 20 38
48 21 42
48 22 39
48 23 28
48 24 26
48 25 39
48 26 17
48 27 35
48 28 49
48 29 44
48 30 21
48 31 41
48 32 29
48 33 20
48 34 20
48 35 45
48 36 2
48 37 3
48 38 28
48 39 21
48 40 21
48 41 34
48 42 46
48 43 2
48 44 26
48 45 13
48 46 45
48 47 3
49 0 50
49 1 37
49 2 42
49 3 18
49 4 42
49 5 44
49 6 42
49 7 1
49 8 5
49 9 13
49 10 10
49 11 1
49 12 22
49 13 5
49 14 39
49 15 36
49 16 15
49 17 23
49 18 33
49 19 41
49 20 12
49 21 11
49 22 15
49 23 7
49 24 26
49 25 26
49 26 46
49 27 35
49 28 46
49 29 41
49 30 34
49 31 16
49 32 32
49 33 43
49 34 3
49 35 4
49 36 21
49 37 41
49 38 23
49 39 32
49 40 29
49 41 39
49 42 47
49 43 38
49 44 16
49 45 12
49 46 23
49 47 26
49 48 30
50 0 49
50 1 16
50 2 34
50 3 27
50 4 4
50 5 26
50 6 28
50 7 47
50 8 19
50 9 4
50 10 24
50 11 34
50 12 43
50 13 43
50 14 5
50 15 34
50 16 45
50 17 10
50 18 26
50 19 47
50 20 5
50 21 18
50 22 26
50 23 1
50 24 23
50 25 44
50 26 2
50 27 26
50 28 33
50 29 5
50 30 39
50 31 38
50 32 4
50 33 18
50 34 34
50 35 30
50 36 46
50 37 1
50 38 26
50 39 9
50 40 3
50 41 44
50 42 49
50 43 47
50 44 43
50 45 44
50 46 35
50 47 5
50 48 11
50 49 14
51 0 26
51 1 42
51 2 2
51 3 12
51 4 36
51 5 18
51 6 22
51 7 47
51 8 44
51 9 47
51 10 10
51 11 34
51 12 46
51 13 24
51 14 3
51 15 9
51 16 8
51 17 11
51 18 9
51 19 13
51 20 37
51 21 36
51 22 33
51 23 48
51 24 24
51 25 48
51 26 9
51 27 5
51 28 9
51 29 22
51 30 36
51 31 16
51 32 49
51 33 39
51 34 17
51 35 2
51 36 49
51 37 35
51 38 25
51 39 38
51 40 39
51 41 36
51 42 41
51 43 35
51 44 1
51 45 5
51 46 2
51 47 31
51 48 24
51 49 21
51 50 3
52 0 24
52 1 20
52 2 11
52 3 18
52 4 14
52 5 30
52 6 14
52 7 28
52 8 47
52 9 49
52 10 44
52 11 22
52 12 18
52 13 25
52 14 35
52 15 45
52 16 6
52 17 18
52 18 13
52 19 39
52 20 45
52 21 17
52 22 18
52 23 15
52 24 17
52 25 16
52 26 36
52 27 34
52 28 14
52 29 24
52 30 33
52 31 13
52 32 44
52 33 43
52 34 28
52 35 46
52 36 12
52 37 45
52 38 46
52 39 45
52 40 2
52 41 31
52 42 23
52 43 13
52 44 38
52 45 6
52 46 3
52 47 18
52 48 14
52 49 45
52 50 34
52 51 20
53 0 47
53 1 1
53 2 46
53 3 40
53 4 26
53 5 50
53 6 18
53 7 37
53 8 27
53 9 13
53 10 44
53 11 27
53 12 35
53 13 12
53 14 9
53 15 22
53 16 44
53 17 32
53 18 23
53 19 43
53 20 25
53 21 16
53 22 9
53 23 26
53 24 14
53 25 47
53 26 47
53 27 39
53 28 3
53 29 13
53 30 8
53 31 6
53 32 31
53 33 37
53 34 3
53 35 30
53 36 10
53 37 38
53 38 5
53 39 40
53 40 39
53 41 39
53 42 42
53 43 23
53 44 27
53 45 8
53 46 2
53 47 1
53 48 1
53 49 14
53 50 13
53 51 27
53 52 44
54 0 33
54 1 12
54 2 36
54 3 10
54 4 35
54 5 11
54 6 18
54 7 40
54 8 20
54 9 28
54 10 50
54 11 7
54 12 25
54 13 18
54 14 40
54 15 22
54 16 26
54 17 11
54 18 45
54 19 29
54 20 29
54 21 6
54 22 49
54 23 16
54 24 17
54 25 48
54 26 18
54 27 21
54 28 16
54 29 29
54 30 4
54 31 26
54 32 16
54 33 6
54 34 6
54 35 30
54 36 28
54 37 37
54 38 1
54 39 45
54 40 10
54 41 29
54 42 3
54 43 6
54 44 7
54 45 17
54 46 40
54 47 30
54 48 3
54 49 24
54 50 12
54 51 37
54 52 16
54 53 16
55 0 7
55 1 30
55 2 12
55 3 29
55 4 21
55 5 46
55 6 41
55 7 39
55 8 21
55 9 29
55 10 29
55 11 39
55 12 22
55 13 20
55 14 34
55 15 21
55 16 2
55 17 41
55 18 9
55 19 48
55 20 45
55 21 44
55 22 44
55 23 34
55 24 8
55 25 22
55 26 31
55 27 4
55 28 36
55 29 28
55 30 27
55 31 14
55 32 35
55 33 32
55 34 41
55 35 37
55 36 7
55 37 30
55 38 4
55 39 21
55 40 43
55 41 13
55 42 5
55 43 40
55 44 25
55 45 26
55 46 45
55 47 25
55 48 42
55 49 20
55 50 4
55 51 28
55 52 20
55 53 30
55 54 2
56 0 19
56 1 6
56 2 18
56 3 35
56 4 48
56 5 36
56 6 48
56 7 15
56 8 6
56 9 40
56 10 29
56 11 3
56 12 20
56 13 2
56 14 49
56 15 18
56 16 22
56 17 36
56 18 45
56 19 29
56 20 26
56 21 45
56 22 8
56 23 20
56 24 30
56 25 25
56 26 45
56 27 29
56 28 29
56 29 20
56 30 19
56 31 36
56 32 44
56 33 14
56 34 25
56 35 27
56 36 48
56 37 35
56 38 31
56 39 40
56 40 25
56 41 34
56 42 31
56 43 37
56 44 50
56 45 44
56 46 5
56 47 23
56 48 17
56 49 5
56 50 11
56 51 14
56 52 11
56 53 30
56 54 40
56 55 15
57 0 47
57 1 24
57 2 11
57 3 46
57 4 35
57 5 13
57 6 25
57 7 17
57 8 12
57 9 17
57 10 44
57 11 46
57 12 42
57 13 43
57 14 8
57 15 4
57 16 36
57 17 10
57 18 7
57 19 47
57 20 26
57 21 16
57 22 36
57 23 22
57 24 15
57 25 21
57 26 19
57 27 43
57 28 14
57 29 35
57 30 23
57 31 21
57 32 22
57 33 15
57 34 1
57 35 27
57 36 10
57 37 31
57 38 27
57 39 23
57 40 16
57 41 32
57 42 30
57 43 38
57 44 31
57 45 39
57 46 13
57 47 29
57 48 46
57 49 32
57 50 44
57 51 46
57 52 30
57 53 31
57 54 26
57 55 11
57 56 16
58 0 6
58 1 11
58 2 46
58 3 17
58 4 48
58 5 39
58 6 43
58 7 48
58 8 6
58 9 45
58 10 40
58 11 8
58 12 50
58 13 24
58 14 17
58 15 43
58 16 45
58 17 50
58 18 37
58 19 29
58 20 7
58 21 43
58 22 48
58 23 9
58 24 14
58 25 5
58 26 28
58 27 39
58 28 11
58 29 7
58 30 14
58 31 25
58 32 17
58 33 16
58 34 32
58 35 20
58 36 29
58 37 14
58 38 32
58 39 17
58 40 23
58 41 27
58 42 30
58 43 31
58 44 22
58 45 49
58 46 28
58 47 36
58 48 40
58 49 40
58 50 1
58 51 25
58 52 14
58 53 15
58 54 30
58 55 35
58 56 1
58 57 34
59 0 6
59 1 30
59 2 24
59 3 24
59 4 14
59 5 50
59 6 26
59 7 15
59 8 28
59 9 2
59 10 38
59 11 21
59 12 24
59 13 36
59 14 42
59 15 45
59 16 49
59 17 35
59 18 11
59 19 21
59 20 39
59 21 1
59 22 36
59 23 10
59 24 42
59 25 40
59 26 48
59 27 23
59 28 17
59 29 50
59 30 7
59 31 20
59 32 46
59 33 41
59 34 11
59 35 35
59 36 37
59 37 18
59 38 5
59 39 41
59 40 4
59 41 28
59 42 22
59 43 39
59 44 13
59 45 25
59 46 22
59 47 15
59 48 45
59 49 37
59 50 24
59 51 5
59 52 15
59 53 12
59 54 18
59 55 7
59 56 12
59 57 35
59 58 45
60 0 46
60 1 7
60 2 48
60 3 45
60 4 48
60 5 45
60 6 23
60 7 27
60 8 27
60 9 35
60 10 29
60 11 9
60 12 42
60 13 13
60 14 6
60 15 43
60 16 12
60 17 43
60 18 32
60 19 37
60 20 30
60 21 39
60 22 28
60 23 42
60 24 20
60 25 41
60 26 20
60 27 18
60 28 20
60 29 33
60 30 17
60 31 28
60 32 7
60 33 34
60 34 8
60 35 8
60 36 9
60 37 20
60 38 5
60 39 15
60 40 16
60 41 17
60 42 15
60 43 9
60 44 36
60 45 18
60 46 46
60 47 15
60 48 7
60 49 37
60 50 40
60 51 9
60 52 22
60 53 10
60 54 25
60 55 6
60 56 47
60 57 47
60 58 16
60 59 1
61 0 37
61 1 32
61 2 1
61 3 36
61 4 30
61 5 2
61 6 42
61 7 5
61 8 12
61 9 36
61 10 45
61 11 46
61 12 11
61 13 36
61 14 48
61 15 20
61 16 22
61 17 27
61 18 17
61 19 35
61 20 19
61 21 27
61 22 20
61 23 42
61 24 13
61 25 30
61 26 31
61 27 49
61 28 36
61 29 1
61 30 28
61 31 47
61 32 5
61 33 19
61 34 12
61 35 7
61 36 48
61 37 21
61 38 10
61 39 42
61 40 36
61 41 39
61 42 44
61 43 47
61 44 18
61 45 17
61 46 44
61 47 42
61 48 35
61 49 28
61 50 5
61 51 16
61 52 33
61 53 42
61 54 45
61 55 2
61 56 29
61 57 43
61 58 44
61 59 27
61 60 14
62 0 32
62 1 41
62 2 29
62 3 35
62 4 29
62 5 48
62 6 12
62 7 11
62 8 34
62 9 23
62 10 6
62 11 40
62 12 42
62 13 49
62 14 37
62 15 1
62 16 40
62 17 29
62 18 36
62 19 2
62 20 20
62 21 20
62 22 20
62 23 28
62 24 38
62 25 44
62 26 4
62 27 3
62 28 50
62 29 13
62 30 3
62 31 45
62 32 19
62 33 46
62 34 5
62 35 15
62 36 46
62 37 34
62 38 36
62 39 42
62 40 5
62 41 5
62 42 47
62 43 22
62 44 6
62 45 12
62 46 8
62 47 36
62 48 29
62 49 38
62 50 11
62 51 7
62 52 43
62 53 6
62 54 40
62 55 37
62 56 32
62 57 12
62 58 41
62 59 35
62 60 42
62 61 47
63 0 32
63 1 32
63 2 23
63 3 50
63 4 44
63 5 10
63 6 38
63 7 34
63 8 14
63 9 48
63 10 49
63 11 48
63 12 9
63 13 25
63 14 22
63 15 2
63 16 8
63 17 20
63 18 25
63 19 29
63 20 4
63 21 41
63 22 15
63 23 46
63 24 34
63 25 4
63 26 32
63 27 14
63 28 19
63 29 2
63 30 32
63 31 22
63 32 39
63 33 33
63 34 16
63 35 37
63 36 8
63 37 26
63 38 44
63 39 3
63 40 12
63 41 25
63 42 15
63 43 20
63 44 19
63 45 46
63 46 44
63 47 4
63 48 24
63 49 34
63 50 30
63 51 36
63 52 13
63 53 15
63 54 15
63 55 22
63 56 8
63 57 42
63 58 24
63 59 47
63 60 40
63 61 11
63 62 36
64 0 41
64 1 5
64 2 11
64 3 20
64 4 22
64 5 41
64 6 18
64 7 1
64 8 1
64 9 7
64 10 18
64 11 20
64 12 23
64 13 11
64 14 44
64 15 25
64 16 37
64 17 16
64 18 40
64 19 30
64 20 32
64 21 33
64 22 13
64 23 12
64 24 21
64 25 48
64 26 41
64 27 2
64 28 48
64 29 32
64 30 11
64 31 12
64 32 36
64 33 2
64 34 48
64 35 33
64 36 10
64 37 47
64 38 44
64 39 32
64 40 47
64 41 26
64 42 26
64 43 30
64 44 2
64 45 15
64 46 45
64 47 44
64 48 4
64 49 47
64 50 1
64 51 32
64 52 34
64 53 35
64 54 5
64 55 1
64 56 47
64 57 1
64 58 27
64 59 2
64 60 47
64 61 35
64 62 47
64 63 35
65 0 34
65 1 19
65 2 49
65 3 19
65 4 6
65 5 22
65 6 22
65 7 24
65 8 27
65 9 22
65 10 14
65 11 47
65 12 3
65 13 40
65 14 5
65 15 45
65 16 4
65 17 19
65 18 30
65 19 50
65 20 8
65 21 1
65 22 3
65 23 33
65 24 22
65 25 11
65 26 15
65 27 33
65 28 30
65 29 32
65 30 22
65 31 34
65 32 7
65 33 3
65 34 49
65 35 33
65 36 17
65 37 42
65 38 46
65 39 15
65 40 3
65 41 13
65 42 16
65 43 34
65 44 28
65 45 3
65 46 13
65 47 14
65 48 37
65 49 4
65 50 2
65 51 29
65 52 33
65 53 7
65 54 17
65 55 2
65 56 49
65 57 2
65 58 24
65 59 12
65 60 43
65 61 34
65 62 3
65 63 26
65 64 38
66 0 34
66 1 26
66 2 11
66 3 18
66 4 40
66 5 33
66 6 24
66 7 22
66 8 10
66 9 47
66 10 7
66 11 45
66 12 13
66 13 1
66 14 18
66 15 16
66 16 27
66 17 9
66 18 39
66 19 4
66 20 4
66 21 14
66 22 24
66 23 18
66 24 8
66 25 30
66 26 47
66 27 4
66 28 9
66 29 26
66 30 46
66 31 19
66 32 14
66 33 4
66 34 49
66 35 3
66 36 43
66 37 39
66 38 34
66 39 19
66 40 3
66 41 8
66 42 11
66 43 46
66 44 8
66 45 2
66 46 31
66 47 19
66 48 48
66 49 20
66 50 49
66 51 42
66 52 50
66 53 26
66 54 21
66 55 15
66 56 5
66 57 23
66 58 16
66 59 6
66 60 18
66 61 9
66 62 30
66 63 18
66 64 48
66 65 12
67 0 35
67 1 46
67 2 2
67 3 13
67 4 29
67 5 31
67 6 43
67 7 45
67 8 6
67 9 4
67 10 31
67 11 6
67 12 22
67 13 3
67 14 48
67 15 41
67 16 13
67 17 50
67 18 49
67 19 10
67 20 4
67 21 28
67 22 1
67 23 18
67 24 7
67 25 28
67 26 48
67 27 6
67 28 1
67 29 30
67 30 23
67 31 43
67 32 35
67 33 7
67 34 27
67 35 6
67 36 19
67 37 1
67 38 21
67 39 7
67 40 48
67 41 32
67 42 18
67 43 21
67 44 37
67 45 7
67 46 8
67 47 16
67 48 3
67 49 23
67 50 26
67 51 50
67 52 8
67 53 6
67 54 10
67 55 14
67 56 42
67 57 43
67 58 41
67 59 17
67 60 47
67 61 42
67 62 47
67 63 11
67 64 24
67 65 43
67 66 20
68 0 28
68 1 29
68 2 35
68 3 9
68 4 3
68 5 25
68 6 37
68 7 29
68 8 28
68 9 29
68 10 11
68 11 44
68 12 42
68 13 41
68 14 6
68 15 14
68 16 20
68 17 20
68 18 16
68 19 39
68 20 44
68 21 16
68 22 22
68 23 32
68 24 42
68 25 8
68 26 30
68 27 28
68 28 7
68 29 17
68 30 11
68 31 3
68 32 6
68 33 32
68 34 14
68 35 36
68 36 10
68 37 35
68 38 34
68 39 29
68 40 39
68 41 45
68 42 46
68 43 38
68 44 22
68 45 35
68 46 48
68 47 37
68 48 42
68 49 15
68 50 3
68 51 21
68 52 44
68 53 30
68 54 47
68 55 28
68 56 46
68 57 7
68 58 30
68 59 7
68 60 12
68 61 7
68 62 32
68 63 8
68 64 43
68 65 27
68 66 47
68 67 20
69 0 32
69 1 23
69 2 48
69 3 27
69 4 7
69 5 4
69 6 49
69 7 23
69 8 25
69 9 5
69 10 14
69 11 42
69 12 38
69 13 40
69 14 45
69 15 48
69 16 50
69 17 18
69 18 17
69 19 43
69 20 9
69 21 32
69 22 34
69 23 42
69 24 48
69 25 41
69 26 42
69 27 5
69 28 25
69 29 25
69 30 33
69 31 9
69 32 7
69 33 13
69 34 26
69 35 50
69 36 30
69 37 34
69 38 23
69 39 17
69 40 43
69 41 23
69 42 41
69 43 29
69 44 46
69 45 41
69 46 11
69 47 3
69 48 14
69 49 36
69 50 2
69 51 28
69 52 39
69 53 21
69 54 7
69 55 40
69 56 41
69 57 10
69 58 5
69 59 37
69 60 26
69 61 34
69 62 15
69 63 4
69 64 12
69 65 37
69 66 43
69 67 32
69 68 15
70 0 4
70 1 44
70 2 49
70 3 50
70 4 42
70 5 47
70 6 40
70 7 20
70 8 5
70 9 21
70 10 41
70 11 8
70 12 43
70 13 7
70 14 9
70 15 27
70 16 42
70 17 37
70 18 41
70 19 27
70 20 25
70 21 19
70 22 49
70 23 23
70 24 37
70 25 42
70 26 48
70 27 27
70 28 25
70 29 8
70 30 45
70 31 27
70 32 3
70 33 18
70 34 1
70 35 8
70 36 29
70 37 36
70 38 37
70 39 44
70 40 34
70 41 3
70 42 25
70 43 31
70 44 32
70 45 26
70 46 12
70 47 6
70 48 29
70 49 49
70 50 48
70 51 9
70 52 4
70 53 23
70 54 27
70 55 45
70 56 27
70 57 22
70 58 9
70 59 38
70 60 31
70 61 27
70 62 33
70 63 7
70 64 28
70 65 38
70 66 34
70 67 27
70 68 50
70 69 10
71 0 35
71 1 36
71 2 33
71 3 50
71 4 8
71 5 19
71 6 14
71 7 50
71 8 5
71 9 10
71 10 13
71 11 10
71 12 13
71 13 17
71 14 5
71 15 5
71 16 27
71 17 39
71 18 41
71 19 33
71 20 6
71 21 45
71 22 18
71 23 4
71 24 43
71 25 21
71 26 15
71 27 46
71 28 22
71 29 21
71 30 48
71 31 21
71 32 38
71 33 8
71 34 42
71 35 28
71 36 15
71 37 4
71 38 2
71 39 26
71 40 24
71 41 29
71 42 4
71 43 36
71 44 19
71 45 14
71 46 7
71 47 13
71 48 6
71 49 21
71 50 41
71 51 33
71 52 2
71 53 23
71 54 44
71 55 5
71 56 7
71 57 22
71 58 20
71 59 37
71 60 39
71 61 14
71 62 33
71 63 36
71 64 18
71 65 22
71 66 16
71 67 34
71 68 25
71 69 16
71 70 42
72 0 14
72 1 7
72 2 19
72 3 25
72 4 3
72 5 11
72 6 3
72 7 42
72 8 8
72 9 11
72 10 38
72 11 48
72 12 10
72 13 28
72 14 26
72 15 39
72 16 11
72 17 30
72 18 8
72 19 4
72 20 18
72 21 36
72 22 5
72 23 9
72 24 40
72 25 50
72 26 49
72 27 11
72 28 3
72 29 6
72 30 48
72 31 47
72 32 46
72 33 29
72 34 9
72 35 45
72 36 1
72 37 30
72 38 38
72 39 31
72 40 24
72 41 4
72 42 25
72 43 24
72 44 49
72 45 22
72 46 48
72 47 44
72 48 31
72 49 15
72 50 30
72 51 16
72 52 15
72 53 28
72 54 17
72 55 7
72 56 43
72 57 45
72 58 26
72 59 16
72 60 20
72 61 46
72 62 8
72 63 29
72 64 31
72 65 33
72 66 8
72 67 13
72 68 44
72 69 49
72 70 28
72 71 15
73 0 28
73 1 2
73 2 11
73 3 5
73 4 33
73 5 5
73 6 27
73 7 39
73 8 5
73 9 2
73 10 46
73 11 22
73 12 32
73 13 25
73 14 10
73 15 22
73 16 42
73 17 33
73 18 15
73 19 37
73 20 20
73 21 39
73 22 32
73 23 32
73 24 17
73 25 15
73 26 17
73 27 36
73 28 29
73 29 48
73 30 50
73 31 37
73 32 22
73 33 5
73 34 30
73 35 36
73 36 6
73 37 24
73 38 8
73 39 28
73 40 12
73 41 1
73 42 34
73 43 43
73 44 8
73 45 16
73 46 39
73 47 43
73 48 27
73 49 42
73 50 10
73 51 25
73 52 4
73 53 11
73 54 37
73 55 16
73 56 45
73 57 4
73 58 30
73 59 18
73 60 40
73 61 5
73 62 49
73 63 26
73 64 8
73 65 30
73 66 26
73 67 48
73 68 24
73 69 22
73 70 47
73 71 21
73 72 32
74 0 18
74 1 47
74 2 35
74 3 27
74 4 48
74 5 9
74 6 34
74 7 36
74 8 37
74 9 44
74 10 14
74 11 40
74 12 11
74 13 31
74 14 36
74 15 8
74 16 44
74 17 46
74 18 38
74 19 9
74 20 25
74 21 4
74 22 30
74 23 41
74 24 45
74 25 11
74 26 48
74 27 22
74 28 34
74 29 19
74 30 17
74 31 50
74 32 47
74 33 21
74 34 23
74 35 22
74 36 16
74 37 34
74 38 21
74 39 17
74 40 48
74 41 50
74 42 4
74 43 27
74 44 38
74 45 22
74 46 32
74 47 11
74 48 34
74 49 29
74 50 37
74 51 24
74 52 22
74 53 31
74 54 47
74 55 38
74 56 2
74 57 26
74 58 46
74 59 12
74 60 8
74 61 28
74 62 38
74 63 16
74 64 44
74 65 33
74 66 32
74 67 34
74 68 39
74 69 46
74 70 23
74 71 34
74 72 5
74 73 15
